webassembly/ejemplos_dzn/9/folder9_json_70.dzn
TERM = { '.', 's(2)', 'local_0', 'local_1', 's(1)', 's(0)'};
null = '.';
s = 9;
n = 7;
ndeps = 3;
max_registers_sz = 3;
NR = 0;
registers = [| |];
dependencies = [|'i32.store_3', 'i32.load16_s_7', |'i32.load16_s_7', 'i32.store8_8', |'i32.load8_s_5', 'i32.store8_8'|];
GET_ENUM = { GET1, GET2, GET3};
SET_ENUM = { SET1, SET2, SET3};
TEE_ENUM = { TEE1, TEE2, TEE3};
N = 7;
OP = { 'i32.store_3', 'i32.load8_s_5', 'i32.const_0', 'i32.load16_s_7', 'i32.store8_8', 'local.get_0', 'local.get_1' };
in_ops = [2, 1, 0, 1, 2, 0, 0 ];
out_ops = [0, 1, 1, 1, 0, 1, 1 ];
in1 = ['local_0', 'local_0', '.', 's(2)', 's(1)', '.', '.' ];
in2 = ['local_1', '.', '.', '.', 's(0)', '.', '.' ];
in3 = ['.', '.', '.', '.', '.', '.', '.' ];
out1 = ['.', 's(0)', 's(2)', 's(1)', '.', 'local_0', 'local_1' ];
out2 = ['.', '.', '.', '.', '.', '.', '.' ];
out3 = ['.', '.', '.', '.', '.', '.', '.' ];
comm = [false, false, false, false, false, false, false ];
gas = [1, 1, 1, 1, 1, 1, 1 ];
sz = [1, 1, 1, 1, 1, 1, 1 ];
stor = [true, false, false, false, true, false, false ];
lb = [ 1, 1, 1, 1, 1, 1, 1 ];
ub = [ 9, 9, 9, 9, 9, 9, 9 ];
startstack = [ null, null, null, null, null, null, null ];
endstack = [ null, null, null, null, null, null, null ];
